# ORCA job from PDB
! B3LYP D3BJ def2-SVP Opt TightSCF

* xyz 0 1
C         10.55000        0.33500       -1.09100
C          9.89900        0.36900        0.28900
O          8.56400        0.77700        0.14700
C          7.78400        0.86200        1.26700
O          8.24300        0.61000        2.35800
N          6.46600        1.23100        1.12500
C          5.52600        1.31900        2.24000
C          4.40900        0.28300        2.04400
C          3.70500        0.49000        0.69300
C          4.74200        0.48300       -0.44100
C          5.84800        1.51300       -0.16900
N          2.68400       -0.56700        0.49800
C          1.70400       -0.48600       -0.30800
N          1.48300        0.52100       -1.04800
C          0.48600        0.52300       -1.82600
C         -0.38500       -0.49100       -1.93000
C         -0.18800       -1.57400       -1.16200
C          0.88000       -1.55200       -0.34600
C         -1.10900       -2.76900       -1.21000
H         11.61500        0.01400       -1.02200
H         10.02200       -0.37800       -1.76600
H         10.52700        1.34100       -1.57000
H         10.44000        1.09300        0.94200
H          9.92900       -0.65000        0.74300
H          6.01000        1.15800        3.22900
H          5.09200        2.34600        2.27800
H          4.85000       -0.74200        2.08100
H          3.66700        0.35600        2.87500
H          3.18500        1.47900        0.72100
H          5.19700       -0.53300       -0.52000
H          4.25200        0.70300       -1.41800
H          6.58500        1.49600       -1.00300
H          5.42000        2.54200       -0.15900
H          2.76500       -1.45200        1.05800
H          0.35200        1.42800       -2.44300
H         -1.23600       -0.43000       -2.62700
H          1.06600       -2.43100        0.29400
H         -1.84700       -2.70200       -2.04000
H         -0.52700       -3.70700       -1.35700
H         -1.67700       -2.85100       -0.25500
*
