# ORCA job from PDB
! B3LYP D3BJ def2-SVP Opt TightSCF

* xyz 0 1
N         -4.80100        0.69700       -2.00800
C         -5.57200        0.05900       -2.81300
C         -6.56800        0.66700       -3.51100
C         -5.41500       -1.27900       -3.01300
C         -4.43000       -1.96300       -2.39400
C         -4.18500       -0.07200        0.28100
O         -0.54900        1.66800        1.58200
C         -0.75100        1.30500        4.20300
N         -0.66600        1.16600        5.45800
C         -0.86000        0.05800        6.03700
C         -1.03800       -1.17900        5.20000
C         -1.78200       -0.85400        3.90200
N         -4.22400       -3.20300       -2.57300
F         -6.15400       -3.24300       -4.10800
H         -4.42600        4.09100       -2.76800
H         -3.18500        2.81400       -3.00200
H         -3.53000       -0.60500        2.21900
H         -3.01900       -1.81000        0.99100
C         -7.37200       -0.00300       -4.34700
C         -7.21200       -1.31400       -4.52600
C         -6.23800       -1.94500       -3.86200
N         -3.61500       -1.44600       -1.58600
C         -2.37200        0.59100       -1.30900
C         -3.78100       -0.03800       -1.21300
C         -3.12200       -0.71900        1.19300
C         -1.37200       -0.10100       -0.37200
C         -1.19300        0.71600        1.96600
C         -1.22100        0.41500        3.30200
C         -0.76100       -0.00400        7.35000
H         -5.96300        2.48300       -1.56100
N         -0.68300       -0.08600        8.50300
F         -6.86900        1.95500       -3.44100
H         -4.69100        2.76400       -3.94800
H         -4.40600        2.48100       -0.88200
H         -4.36000        0.96300        0.65600
H         -5.15600       -0.61300        0.38600
H         -2.01400        0.53400       -2.36500
H         -2.38500        1.66700       -1.02300
H         -1.22600       -1.16700       -0.66400
H         -0.36200        0.35200       -0.49300
C         -4.92700        2.17500       -1.81700
C         -4.28100        2.99900       -2.94200
H         -7.87600       -1.86400       -5.21400
H         -8.17500        0.52000       -4.89400
N         -1.83400       -0.05000        1.01500
H         -0.41100        2.31000        3.89500
H         -1.57700       -1.97200        5.77000
H         -0.02000       -1.57300        4.96400
H         -2.85400       -0.69200        4.16700
H         -1.67800       -1.72500        3.21400
H         -3.43900       -3.68100       -2.06600
H         -4.80400       -3.79000       -3.21600
*
