# ORCA job from PDB
! B3LYP D3BJ def2-SVP Opt TightSCF

* xyz 0 1
C          4.10500        0.31600        0.66600
C          4.80100        1.44500        0.96300
C          4.24800        2.68100        0.71900
O          4.88400        3.67700        1.01700
C          3.00100        2.77500        0.16500
C          2.36700        3.96000       -0.01300
O          2.88100        5.17400        0.33800
C          1.13600        3.96100       -0.55500
C          0.50400        2.84500       -0.93800
O         -0.73900        2.87200       -1.49000
C          1.16400        1.69400       -0.76100
C          2.39200        1.63700       -0.21600
O          2.98500        0.42200       -0.10800
C          4.51000       -0.95100        0.95700
C          3.99200       -1.99600        0.27800
C          4.34000       -3.29200        0.42300
O          3.72600       -4.19000       -0.42400
C          4.17300       -5.52000       -0.51900
C          5.28400       -3.57700        1.34700
O          5.74400       -4.83200        1.60000
C          5.76600       -2.57100        2.09200
C          5.38000       -1.30100        1.92000
O          6.09300        1.47500        1.46000
C          7.06700        0.86500        0.63300
C          8.48000        1.29900        0.92700
O          8.63700        2.66500        0.62400
C          9.41700        0.47600        0.05300
O          9.46400       -0.86200        0.50200
C          8.97300        0.53100       -1.40300
O          9.34300        1.80400       -1.89300
C          7.46900        0.37900       -1.63000
O          6.72900        1.12900       -0.70600
C          6.91000       -1.03100       -1.82900
O          7.12300       -1.87700       -0.72000
H          2.22900        5.86600        0.14300
H          0.61500        4.92300       -0.69400
H         -1.01200        1.96500       -1.70500
H          0.67900        0.75600       -1.08000
H          3.24700       -1.81900       -0.51800
H          3.59200       -6.01200       -1.33100
H          5.24800       -5.54800       -0.80500
H          3.96000       -6.07100        0.42300
H          6.37800       -4.80900        2.33400
H          6.49500       -2.80200        2.88800
H          5.79200       -0.57600        2.63700
H          7.03500       -0.21800        0.81500
H          8.72200        1.16900        2.00800
H          8.49600        2.80500       -0.31700
H         10.45900        0.86200        0.16000
H          8.87500       -1.42400       -0.00400
H          9.54000       -0.20900       -2.01400
H          9.46300        1.78100       -2.84400
H          7.25300        0.86900       -2.61700
H          5.81200       -1.00600       -2.01000
H          7.39500       -1.51700       -2.70600
H          6.29300       -2.07600       -0.27000
*
